objective value:                                 -167
t_x2                                                1 	(obj:-100)
t_x86                                               1 	(obj:-100)
t_y86_249                                           1 	(obj:1)
t_y86_173                                           1 	(obj:1)
t_y2_45                                             1 	(obj:1)
t_y86_191                                           1 	(obj:1)
t_y86_201                                           1 	(obj:1)
t_y86_104                                           1 	(obj:1)
t_y86_99                                            1 	(obj:1)
t_y2_26                                             1 	(obj:1)
t_y2_98                                             1 	(obj:1)
t_y86_134                                           1 	(obj:1)
t_y37_86                                            1 	(obj:1)
t_y2_88                                             1 	(obj:1)
t_y77_86                                            1 	(obj:1)
t_y2_19                                             1 	(obj:1)
t_y86_229                                           1 	(obj:1)
t_y86_204                                           1 	(obj:1)
t_y60_86                                            1 	(obj:1)
t_y2_173                                            1 	(obj:1)
t_y86_103                                           1 	(obj:1)
t_y2_103                                            1 	(obj:1)
t_y86_224                                           1 	(obj:1)
t_y86_131                                           1 	(obj:1)
t_y86_175                                           1 	(obj:1)
t_y2_38                                             1 	(obj:1)
t_y86_106                                           1 	(obj:1)
t_y2_227                                            1 	(obj:1)
t_y34_86                                            1 	(obj:1)
t_y56_86                                            1 	(obj:1)
t_y86_225                                           1 	(obj:1)
t_y2_162                                            1 	(obj:1)
t_y86_172                                           1 	(obj:1)
t_y86_195                                           1 	(obj:1)
t_y2_29                                             1 	(obj:1)
